27 3
5 3 4
0 0 0 0 25 2 3 4 5 6 7 8 9 10 11 12 13 14 15 16 17 18 19 20 21 22 23 24 25 26
4 2 1 2 5 27 23 24 20 14
5 2 0 0 4 27 15 21 17
4 2 0 2 4 27 14 24 22
4 1 1 2 4 27 21 26 13
2 1 1 2 2 27 19
3 0 0 1 4 27 10 11 26
5 0 0 1 6 27 25 15 16 22 16
2 2 1 2 4 27 23 10 25
2 1 0 0 2 27 16
1 0 1 1 3 27 13 16
3 2 1 1 3 27 14 13
3 2 1 1 4 27 17 14 14
4 0 1 2 2 27 26
3 0 1 1 3 27 20 18
1 2 1 2 2 27 21
4 2 0 0 2 27 25
3 0 1 2 3 27 25 26
1 1 1 1 1 27
1 1 1 1 1 27
3 0 0 1 1 27
1 2 0 2 3 27 25 24
1 2 0 1 2 27 24
2 0 0 2 3 27 26 26
2 0 1 2 1 27
5 0 1 2 1 27
0 0 0 0 0
